NAME : portcgen-17-5
COMMENT : portcgen N=17, seed=5
TYPE : TSP
DIMENSION : 17
EDGE_WEIGHT_TYPE : EUC_2D
NODE_COORD_SECTION
1 176783 20180
2 74995 -19211
3 35739 54059
4 -261535 339731
5 -277755 36559
6 22327 -43531
7 165066 210805
8 224056 239402
9 39632 -258873
10 248232 10999
11 26404 -176739
12 140574 218201
13 -116233 403387
14 -56722 195801
15 -82251 89627
16 461775 305912
17 -245105 221025
